c Circuit-CNF generated by TG-PRO v1.0 (c) Huan Chen and Joao Marques-Silva
p cnf 644 1759
1 -2 0
1 -3 0
-1 2 3 0
4 -5 0
4 -6 0
-4 5 6 0
7 -8 0
7 -9 0
-7 8 9 0
10 -11 0
10 -12 0
-10 11 12 0
13 14 0
13 15 0
-13 -14 -15 0
16 17 0
-16 -17 0
18 -19 0
18 -20 0
-18 19 20 0
21 -22 0
21 -23 0
-21 22 23 0
24 -25 0
24 -26 0
-24 25 26 0
27 -28 0
27 -29 0
-27 28 29 0
30 -31 0
30 -32 0
-30 31 32 0
33 -34 0
33 -35 0
-33 34 35 0
36 -37 0
36 -38 0
-36 37 38 0
-39 -40 0
-39 -41 0
39 40 41 0
42 43 0
42 44 0
-42 -43 -44 0
45 46 0
45 47 0
-45 -46 -47 0
48 49 0
48 50 0
-48 -49 -50 0
-51 -52 0
-51 -53 0
51 52 53 0
-54 -55 0
-54 -56 0
54 55 56 0
57 58 0
57 59 0
-57 -58 -59 0
-60 -61 0
-60 -62 0
60 61 62 0
63 64 0
63 65 0
-63 -64 -65 0
-66 67 0
-66 68 0
66 -67 -68 0
69 70 0
69 71 0
-69 -70 -71 0
-72 -73 0
-72 -74 0
72 73 74 0
-75 -76 0
-75 -77 0
75 76 77 0
-78 -79 0
-78 -80 0
78 79 80 0
-81 -82 0
-81 -83 0
81 82 83 0
-84 -85 0
-84 -86 0
84 85 86 0
87 88 0
87 89 0
-87 -88 -89 0
-90 -91 0
-90 -92 0
90 91 92 0
93 94 0
93 44 0
-93 -94 -44 0
95 93 0
-95 -93 0
96 97 0
96 98 0
-96 -97 -98 0
99 96 0
-99 -96 0
100 101 0
100 102 0
-100 -101 -102 0
103 100 0
-103 -100 0
104 105 0
104 106 0
-104 -105 -106 0
107 104 0
-107 -104 0
108 109 0
-108 -109 0
110 111 0
-110 -111 0
112 106 0
112 113 0
-112 -106 -113 0
114 112 0
-114 -112 0
115 94 0
115 116 0
-115 -94 -116 0
105 115 0
-105 -115 0
117 97 0
117 118 0
-117 -97 -118 0
119 117 0
-119 -117 0
120 99 0
120 102 0
-120 -99 -102 0
121 120 0
-121 -120 0
122 123 0
122 106 0
-122 -123 -106 0
124 122 0
-124 -122 0
125 126 0
125 62 0
-125 -126 -62 0
127 125 0
-127 -125 0
128 129 0
-128 -129 0
130 131 0
130 102 0
-130 -131 -102 0
132 130 0
-132 -130 0
133 134 0
-133 -134 0
135 136 0
-135 -136 0
137 102 0
137 62 0
-137 -102 -62 0
138 137 0
-138 -137 0
139 140 0
-139 -140 0
141 142 0
141 114 0
-141 -142 -114 0
143 141 0
-143 -141 0
144 105 0
144 145 0
-144 -105 -145 0
146 144 0
-146 -144 0
147 148 0
147 149 0
-147 -148 -149 0
150 147 0
-150 -147 0
50 126 0
50 119 0
-50 -126 -119 0
151 50 0
-151 -50 0
152 -98 0
152 -153 0
-152 98 153 0
154 152 0
-154 -152 0
155 156 0
155 157 0
-155 -156 -157 0
158 155 0
-158 -155 0
159 160 0
159 121 0
-159 -160 -121 0
161 159 0
-161 -159 0
162 163 0
162 164 0
-162 -163 -164 0
165 162 0
-165 -162 0
166 107 0
166 167 0
-166 -107 -167 0
168 166 0
-168 -166 0
169 170 0
169 168 0
-169 -170 -168 0
171 169 0
-171 -169 0
172 173 0
172 113 0
-172 -173 -113 0
145 172 0
-145 -172 0
174 -173 0
174 -175 0
-174 173 175 0
176 174 0
-176 -174 0
177 178 0
177 68 0
-177 -178 -68 0
179 177 0
-179 -177 0
65 98 0
65 178 0
-65 -98 -178 0
180 65 0
-180 -65 0
181 101 0
181 97 0
-181 -101 -97 0
182 181 0
-182 -181 0
183 184 0
183 113 0
-183 -184 -113 0
167 183 0
-167 -183 0
185 186 0
185 187 0
-185 -186 -187 0
188 185 0
-188 -185 0
189 190 0
189 126 0
-189 -190 -126 0
191 189 0
-191 -189 0
192 153 0
-192 -153 0
193 194 0
193 139 0
-193 -194 -139 0
3 193 0
-3 -193 0
15 -195 0
15 -196 0
-15 195 196 0
77 15 0
-77 -15 0
-197 -185 0
-197 -181 0
197 185 181 0
198 197 0
-198 -197 0
-199 -200 0
-199 -201 0
199 200 201 0
202 199 0
-202 -199 0
203 156 0
203 62 0
-203 -156 -62 0
204 203 0
-204 -203 0
-205 -113 0
-205 -116 0
205 113 116 0
206 205 0
-206 -205 0
-207 -208 0
-207 -209 0
207 208 209 0
210 207 0
-210 -207 0
211 153 0
-211 -153 0
6 193 0
-6 -193 0
163 212 0
163 118 0
-163 -212 -118 0
213 163 0
-213 -163 0
187 214 0
187 196 0
-187 -214 -196 0
56 187 0
-56 -187 0
-215 -126 0
-215 -147 0
215 126 147 0
216 215 0
-216 -215 0
217 218 0
217 219 0
-217 -218 -219 0
220 217 0
-220 -217 0
-221 -184 0
-221 -116 0
221 184 116 0
222 221 0
-222 -221 0
223 197 0
-223 -197 0
209 187 0
209 224 0
-209 -187 -224 0
225 209 0
-225 -209 0
226 -227 0
226 -228 0
-226 227 228 0
229 226 0
-229 -226 0
-230 -62 0
-230 -231 0
230 62 231 0
232 230 0
-232 -230 0
231 217 0
-231 -217 0
-233 -234 0
-233 -188 0
233 234 188 0
235 233 0
-235 -233 0
-236 -157 0
-236 -130 0
236 157 130 0
237 236 0
-237 -236 0
-238 -160 0
-238 -137 0
238 160 137 0
239 238 0
-239 -238 0
201 240 0
201 241 0
-201 -240 -241 0
242 201 0
-242 -201 0
243 230 0
-243 -230 0
-244 -208 0
-244 -245 0
244 208 245 0
246 244 0
-246 -244 0
247 190 0
-247 -190 0
160 101 0
-160 -101 0
131 126 0
-131 -126 0
248 102 0
-248 -102 0
249 250 0
249 251 0
-249 -250 -251 0
252 249 0
-252 -249 0
156 97 0
-156 -97 0
118 62 0
-118 -62 0
157 98 0
-157 -98 0
123 184 0
-123 -184 0
173 106 0
-173 -106 0
178 94 0
-178 -94 0
44 113 0
-44 -113 0
253 116 0
-253 -116 0
200 208 0
-200 -208 0
245 254 0
-245 -254 0
255 226 0
-255 -226 0
148 -256 0
148 -257 0
-148 256 257 0
258 148 0
-258 -148 0
259 -101 0
259 -118 0
-259 101 118 0
260 97 0
260 137 0
-260 -97 -137 0
-261 259 0
-261 260 0
261 -259 -260 0
262 248 0
262 99 0
-262 -248 -99 0
-263 130 0
-263 262 0
263 -130 -262 0
264 265 0
264 266 0
-264 -265 -266 0
-267 268 0
-267 244 0
267 -268 -244 0
269 126 0
269 97 0
-269 -126 -97 0
-270 -254 0
-270 -210 0
270 254 210 0
-271 272 0
-271 270 0
271 -272 -270 0
273 274 0
273 275 0
-273 -274 -275 0
-276 -254 0
-276 -202 0
276 254 202 0
-277 273 0
-277 276 0
277 -273 -276 0
278 279 0
278 280 0
-278 -279 -280 0
-281 62 0
-281 278 0
281 -62 -278 0
282 283 0
282 262 0
-282 -283 -262 0
-284 -160 0
-284 -185 0
284 160 185 0
-285 282 0
-285 284 0
285 -282 -284 0
-286 248 0
-286 119 0
286 -248 -119 0
287 288 0
287 260 0
-287 -288 -260 0
-289 98 0
-289 287 0
289 -98 -287 0
290 291 0
290 155 0
-290 -291 -155 0
-292 62 0
-292 290 0
292 -62 -290 0
-293 -160 0
-293 -97 0
293 160 97 0
-52 294 0
-52 199 0
52 -294 -199 0
-53 151 0
-53 207 0
53 -151 -207 0
295 254 0
295 186 0
-295 -254 -186 0
296 245 0
296 224 0
-296 -245 -224 0
-297 295 0
-297 296 0
297 -295 -296 0
298 98 0
298 276 0
-298 -98 -276 0
299 106 0
299 300 0
-299 -106 -300 0
-195 298 0
-195 299 0
195 -298 -299 0
-301 124 0
-301 95 0
301 -124 -95 0
302 -301 0
302 -217 0
-302 301 217 0
-303 -304 0
-303 -120 0
303 304 120 0
-305 306 0
-305 303 0
305 -306 -303 0
307 308 0
307 309 0
-307 -308 -309 0
-310 126 0
-310 307 0
310 -126 -307 0
-311 -312 0
-311 -102 0
311 312 102 0
-257 131 0
-257 311 0
257 -131 -311 0
-313 314 0
-313 270 0
313 -314 -270 0
315 316 0
315 317 0
-315 -316 -317 0
-318 319 0
-318 276 0
318 -319 -276 0
320 -281 0
320 -285 0
-320 281 285 0
-9 320 0
-9 244 0
9 -320 -244 0
321 157 0
321 322 0
-321 -157 -322 0
323 324 0
323 325 0
-323 -324 -325 0
-312 321 0
-312 323 0
312 -321 -323 0
326 44 0
326 327 0
-326 -44 -327 0
-61 166 0
-61 326 0
61 -166 -326 0
-328 101 0
-328 233 0
328 -101 -233 0
329 330 0
329 159 0
-329 -330 -159 0
-331 329 0
-331 146 0
331 -329 -146 0
-332 -113 0
-332 -104 0
332 113 104 0
-333 332 0
-333 161 0
333 -332 -161 0
-334 -101 0
-334 -248 0
334 101 248 0
-335 336 0
-335 334 0
335 -336 -334 0
-337 106 0
-337 329 0
337 -106 -329 0
338 -331 0
338 -333 0
-338 331 333 0
-339 123 0
-339 338 0
339 -123 -338 0
340 -335 0
340 -337 0
-340 335 337 0
-341 -253 0
-341 -177 0
341 253 177 0
-342 340 0
-342 341 0
342 -340 -341 0
343 -339 0
343 -342 0
-343 339 342 0
-227 344 0
-227 343 0
227 -344 -343 0
345 166 0
345 346 0
-345 -166 -346 0
-347 -131 0
-347 -96 0
347 131 96 0
-228 348 0
-228 238 0
228 -348 -238 0
349 350 0
349 351 0
-349 -350 -351 0
-352 126 0
-352 349 0
352 -126 -349 0
-353 138 0
-353 293 0
353 -138 -293 0
-354 355 0
-354 99 0
354 -355 -99 0
356 -352 0
356 -353 0
-356 352 353 0
-357 98 0
-357 356 0
357 -98 -356 0
-358 -62 0
-358 -184 0
358 62 184 0
-359 360 0
-359 180 0
359 -360 -180 0
-68 -123 0
-68 -113 0
68 123 113 0
-361 362 0
-361 68 0
361 -362 -68 0
363 -359 0
363 -361 0
-363 359 361 0
-67 -190 0
-67 -97 0
67 190 97 0
-364 365 0
-364 67 0
364 -365 -67 0
-366 190 0
-366 171 0
366 -190 -171 0
367 123 0
367 95 0
-367 -123 -95 0
-368 367 0
-368 177 0
368 -367 -177 0
369 370 0
369 371 0
-369 -370 -371 0
-372 184 0
-372 369 0
372 -184 -369 0
-373 98 0
-373 175 0
373 -98 -175 0
374 -372 0
374 -373 0
-374 372 373 0
-73 106 0
-73 374 0
73 -106 -374 0
-74 98 0
-74 332 0
74 -98 -332 0
-375 203 0
-375 117 0
375 -203 -117 0
-376 117 0
-376 236 0
376 -117 -236 0
377 378 0
377 262 0
-377 -378 -262 0
-379 126 0
-379 377 0
379 -126 -377 0
380 -354 0
380 -357 0
-380 354 357 0
-381 382 0
-381 244 0
381 -382 -244 0
-383 133 0
-383 276 0
383 -133 -276 0
384 -376 0
384 -379 0
-384 376 379 0
-12 384 0
-12 270 0
12 -384 -270 0
385 178 0
385 386 0
-385 -178 -386 0
-387 388 0
-387 385 0
387 -388 -385 0
389 98 0
389 94 0
-389 -98 -94 0
-390 391 0
-390 276 0
390 -391 -276 0
-392 300 0
-392 143 0
392 -300 -143 0
-393 173 0
-393 105 0
393 -173 -105 0
394 395 0
394 396 0
-394 -395 -396 0
-397 124 0
-397 394 0
397 -124 -394 0
-398 122 0
-398 95 0
398 -122 -95 0
-399 -98 0
-399 -183 0
399 98 183 0
-400 94 0
-400 399 0
400 -94 -399 0
401 -402 0
401 -398 0
-401 402 398 0
-403 98 0
-403 401 0
403 -98 -401 0
404 405 0
404 406 0
-404 -405 -406 0
-19 407 0
-19 300 0
19 -407 -300 0
408 -400 0
408 -403 0
-408 400 403 0
-20 408 0
-20 276 0
20 -408 -276 0
-409 410 0
-409 93 0
409 -410 -93 0
411 412 0
411 413 0
-411 -412 -413 0
-414 178 0
-414 411 0
414 -178 -411 0
-79 415 0
-79 105 0
79 -415 -105 0
416 -409 0
416 -414 0
-416 409 414 0
-80 116 0
-80 416 0
80 -116 -416 0
-22 135 0
-22 276 0
22 -135 -276 0
417 418 0
417 419 0
-417 -418 -419 0
-23 417 0
-23 300 0
23 -417 -300 0
420 190 0
420 102 0
-420 -190 -102 0
-421 422 0
-421 276 0
421 -422 -276 0
423 102 0
423 97 0
-423 -102 -97 0
-424 425 0
-424 270 0
424 -425 -270 0
426 427 0
426 428 0
-426 -427 -428 0
-429 430 0
-429 284 0
429 -430 -284 0
431 156 0
431 432 0
-431 -156 -432 0
-433 434 0
-433 431 0
433 -434 -431 0
435 436 0
435 261 0
-435 -436 -261 0
-437 190 0
-437 435 0
437 -190 -435 0
438 -433 0
438 -437 0
-438 433 437 0
-25 439 0
-25 276 0
25 -439 -276 0
-440 -208 0
-440 -216 0
440 208 216 0
-26 440 0
-26 311 0
26 -440 -311 0
-441 -97 0
-441 -232 0
441 97 232 0
-442 116 0
-442 441 0
442 -116 -441 0
-443 -118 0
-443 -346 0
443 118 346 0
-444 97 0
-444 443 0
444 -97 -443 0
-445 -101 0
-445 -235 0
445 101 235 0
-446 447 0
-446 347 0
446 -447 -347 0
-448 121 0
-448 215 0
448 -121 -215 0
-449 101 0
-449 236 0
449 -101 -236 0
450 451 0
450 452 0
-450 -451 -452 0
-453 450 0
-453 103 0
453 -450 -103 0
-83 102 0
-83 165 0
83 -102 -165 0
-325 -118 0
-325 -96 0
325 118 96 0
-454 455 0
-454 325 0
454 -455 -325 0
-456 158 0
-456 322 0
456 -158 -322 0
457 -328 0
457 -150 0
-457 328 150 0
458 -442 0
458 -444 0
-458 442 444 0
-459 -248 0
-459 -157 0
459 248 157 0
-460 461 0
-460 459 0
460 -461 -459 0
462 -446 0
462 -448 0
-462 446 448 0
-463 464 0
-463 358 0
463 -464 -358 0
-465 466 0
-465 110 0
465 -466 -110 0
467 -454 0
467 -456 0
-467 454 456 0
-468 469 0
-468 215 0
468 -469 -215 0
470 471 0
470 472 0
-470 -471 -472 0
-28 473 0
-28 276 0
28 -473 -276 0
474 -475 0
474 -468 0
-474 475 468 0
-29 200 0
-29 474 0
29 -200 -474 0
-476 -368 0
-476 -173 0
476 368 173 0
-477 478 0
-477 476 0
477 -478 -476 0
-479 457 0
-479 441 0
479 -457 -441 0
-480 -481 0
-480 -239 0
480 481 239 0
-482 483 0
-482 484 0
482 -483 -484 0
485 -477 0
485 -479 0
-485 477 479 0
-486 487 0
-486 459 0
486 -487 -459 0
-488 -62 0
-488 -155 0
488 62 155 0
-85 168 0
-85 488 0
85 -168 -488 0
489 490 0
489 491 0
-489 -490 -491 0
-492 -184 0
-492 -106 0
492 184 106 0
-86 489 0
-86 492 0
86 -489 -492 0
-493 476 0
-493 303 0
493 -476 -303 0
-494 248 0
-494 108 0
494 -248 -108 0
495 -482 0
495 -486 0
-495 482 486 0
-496 -131 0
-496 -253 0
496 131 253 0
-31 495 0
-31 496 0
31 -495 -496 0
497 -493 0
497 -494 0
-497 493 494 0
-32 497 0
-32 440 0
32 -497 -440 0
-498 -97 0
-498 -62 0
498 97 62 0
-499 500 0
-499 179 0
499 -500 -179 0
-501 -502 0
-501 -96 0
501 502 96 0
-503 138 0
-503 501 0
503 -138 -501 0
-40 132 0
-40 117 0
40 -132 -117 0
504 203 0
504 423 0
-504 -203 -423 0
-164 -101 0
-164 -131 0
164 101 131 0
-41 504 0
-41 164 0
41 -504 -164 0
505 -499 0
505 -503 0
-505 499 503 0
-506 507 0
-506 505 0
506 -507 -505 0
-508 -120 0
-508 -243 0
508 120 243 0
-509 445 0
-509 508 0
509 -445 -508 0
-510 484 0
-510 180 0
510 -484 -180 0
-511 190 0
-511 501 0
511 -190 -501 0
512 -506 0
512 -509 0
-512 506 509 0
-513 200 0
-513 512 0
513 -200 -512 0
514 -510 0
514 -511 0
-514 510 511 0
-515 514 0
-515 480 0
515 -514 -480 0
-516 517 0
-516 399 0
516 -517 -399 0
518 519 0
518 491 0
-518 -519 -491 0
-520 518 0
-520 492 0
520 -518 -492 0
521 -516 0
521 -520 0
-521 516 520 0
-522 248 0
-522 521 0
522 -248 -521 0
-523 116 0
-523 508 0
523 -116 -508 0
524 -513 0
524 -515 0
-524 513 515 0
-34 524 0
-34 496 0
34 -524 -496 0
525 -522 0
525 -523 0
-525 522 523 0
-35 525 0
-35 440 0
35 -525 -440 0
-149 -254 0
-149 -225 0
149 254 225 0
-526 527 0
-526 149 0
526 -527 -149 0
-528 -529 0
-528 -242 0
528 529 242 0
-530 249 0
-530 528 0
530 -249 -528 0
-531 -188 0
-531 -246 0
531 188 246 0
-38 255 0
-38 531 0
38 -255 -531 0
532 533 0
532 101 0
-532 -533 -101 0
-534 535 0
-534 138 0
534 -535 -138 0
-536 118 0
-536 334 0
536 -118 -334 0
-537 -247 0
-537 -102 0
537 247 102 0
-538 117 0
-538 537 0
538 -117 -537 0
539 -540 0
539 -538 0
-539 540 538 0
-541 542 0
-541 539 0
541 -542 -539 0
-543 157 0
-543 123 0
543 -157 -123 0
-544 154 0
-544 44 0
544 -154 -44 0
545 546 0
545 190 0
-545 -546 -190 0
-92 160 0
-92 545 0
92 -160 -545 0
-547 131 0
-547 537 0
547 -131 -537 0
548 190 0
548 549 0
-548 -190 -549 0
-550 156 0
-550 548 0
550 -156 -548 0
-551 67 0
-551 102 0
551 -67 -102 0
552 -547 0
552 -550 0
-552 547 550 0
-553 118 0
-553 552 0
553 -118 -552 0
-554 -94 0
-554 -206 0
554 94 206 0
555 556 0
555 153 0
-555 -556 -153 0
557 106 0
557 175 0
-557 -106 -175 0
-558 559 0
-558 557 0
558 -559 -557 0
560 172 0
560 174 0
-560 -172 -174 0
-561 562 0
-561 221 0
561 -562 -221 0
563 564 0
563 565 0
-563 -564 -565 0
-566 116 0
-566 563 0
566 -116 -563 0
567 -551 0
567 -553 0
-567 551 553 0
-568 567 0
-568 117 0
568 -567 -117 0
251 -364 0
251 -366 0
-251 364 366 0
569 -570 0
569 -292 0
-569 570 292 0
571 -387 0
571 -298 0
-571 387 298 0
572 -263 0
572 -118 0
-572 263 118 0
378 -375 0
378 -157 0
-378 375 157 0
196 184 0
196 95 0
-196 -184 -95 0
265 -573 0
265 -185 0
-265 573 185 0
266 -62 0
266 -198 0
-266 62 198 0
43 -94 0
43 -253 0
-43 94 253 0
574 -131 0
574 -261 0
-574 131 261 0
46 -44 0
46 -105 0
-46 44 105 0
47 -184 0
47 -253 0
-47 184 253 0
279 -575 0
279 -185 0
-279 575 185 0
280 -130 0
280 -223 0
-280 130 223 0
576 -122 0
576 -211 0
-576 122 211 0
577 -107 0
577 -183 0
-577 107 183 0
578 -62 0
578 -237 0
-578 62 237 0
579 -132 0
579 -117 0
-579 132 117 0
580 -121 0
580 -125 0
-580 121 125 0
581 -130 0
581 -213 0
-581 130 213 0
212 -97 0
212 -157 0
-212 97 157 0
291 -248 0
291 -99 0
-291 248 99 0
582 -182 0
582 -62 0
-582 182 62 0
70 -131 0
70 -138 0
-70 131 138 0
583 -160 0
583 -191 0
-583 160 191 0
584 -156 0
584 -189 0
-584 156 189 0
142 -123 0
142 -178 0
-142 123 178 0
58 -585 0
58 -177 0
-58 585 177 0
59 -157 0
59 -220 0
-59 157 220 0
586 -420 0
586 -182 0
-586 420 182 0
218 -587 0
218 -172 0
-218 587 172 0
219 -173 0
219 -177 0
-219 173 177 0
588 126 0
588 248 0
-588 -126 -248 0
589 -157 0
589 -588 0
-589 157 588 0
590 -118 0
590 -98 0
-590 118 98 0
350 -102 0
350 -97 0
-350 102 97 0
351 -101 0
351 -119 0
-351 101 119 0
591 156 0
591 103 0
-591 -156 -103 0
330 -157 0
330 -591 0
-330 157 591 0
64 -98 0
64 -178 0
-64 98 178 0
370 -116 0
370 -389 0
-370 116 389 0
371 -98 0
371 -192 0
-371 98 192 0
592 -173 0
592 -178 0
-592 173 178 0
413 184 0
413 173 0
-413 -184 -173 0
593 -253 0
593 -413 0
-593 253 413 0
594 -44 0
594 -116 0
-594 44 116 0
395 -178 0
395 -44 0
-395 178 44 0
396 -113 0
396 -253 0
-396 113 253 0
405 -184 0
405 -112 0
-405 184 112 0
412 -157 0
412 -112 0
-412 157 112 0
595 -94 0
595 -183 0
-595 94 183 0
596 -122 0
596 -95 0
-596 122 95 0
406 184 0
406 112 0
-406 -184 -112 0
418 -115 0
418 -406 0
-418 115 406 0
597 -62 0
597 -100 0
-597 62 100 0
598 -97 0
598 -137 0
-598 97 137 0
599 -98 0
599 -269 0
-599 98 269 0
600 -157 0
600 -117 0
-600 157 117 0
452 -118 0
452 -99 0
-452 118 99 0
601 -102 0
601 -62 0
-601 102 62 0
602 -131 0
602 -103 0
-602 131 103 0
432 248 0
432 62 0
-432 -248 -62 0
603 -604 0
603 -432 0
-603 604 432 0
605 -208 0
605 -147 0
-605 208 147 0
606 -607 0
606 -117 0
-606 607 117 0
549 574 0
549 248 0
-549 -574 -248 0
608 -119 0
608 -549 0
-608 119 549 0
533 -247 0
533 -119 0
-533 247 119 0
609 -114 0
609 -178 0
-609 114 178 0
317 247 0
317 182 0
-317 -247 -182 0
274 -248 0
274 -317 0
-274 248 317 0
610 -44 0
610 -112 0
-610 44 112 0
490 611 0
490 554 0
-490 -611 -554 0
491 612 0
491 325 0
-491 -612 -325 0
519 488 0
519 205 0
-519 -488 -205 0
71 131 0
71 138 0
-71 -131 -138 0
613 614 0
613 71 0
-613 -614 -71 0
472 97 0
472 613 0
-472 -97 -613 0
386 593 0
386 594 0
-386 -593 -594 0
428 156 0
428 615 0
-428 -156 -615 0
616 583 0
616 584 0
-616 -583 -584 0
617 248 0
617 616 0
-617 -248 -616 0
346 95 0
346 327 0
-346 -95 -327 0
618 595 0
618 596 0
-618 -595 -596 0
419 116 0
419 618 0
-419 -116 -618 0
619 610 0
619 94 0
-619 -610 -94 0
275 190 0
275 128 0
-275 -190 -128 0
620 621 0
620 176 0
-620 -621 -176 0
565 619 0
565 492 0
-565 -619 -492 0
622 623 0
622 498 0
-622 -623 -498 0
309 121 0
309 443 0
-309 -121 -443 0
624 252 0
624 528 0
-624 -252 -528 0
-327 -106 0
-327 -222 0
327 106 222 0
625 626 0
625 300 0
-625 -626 -300 0
89 226 0
89 531 0
-89 -226 -531 0
186 627 0
186 162 0
-186 -627 -162 0
628 101 0
628 569 0
-628 -101 -569 0
629 630 0
629 157 0
-629 -630 -157 0
615 631 0
615 137 0
-615 -631 -137 0
-241 -632 0
-241 -568 0
241 632 568 0
633 -421 0
633 -424 0
-633 421 424 0
2 -633 0
2 -429 0
-2 633 429 0
634 -267 0
634 -271 0
-634 267 271 0
5 -634 0
5 -277 0
-5 634 277 0
8 -313 0
8 -318 0
-8 313 318 0
11 -381 0
11 -383 0
-11 381 383 0
-14 625 0
-14 571 0
14 -625 -571 0
37 -526 0
37 -530 0
-37 526 530 0
-49 580 0
-49 581 0
49 -580 -581 0
55 -297 0
55 -208 0
-55 297 208 0
76 -390 0
76 -392 0
-76 390 392 0
82 -449 0
82 -453 0
-82 449 453 0
-88 605 0
-88 624 0
88 -605 -624 0
635 -541 0
635 -543 0
-635 541 543 0
91 -635 0
91 -544 0
-91 635 544 0
-170 138 0
-170 99 0
170 -138 -99 0
-194 102 0
-194 245 0
194 -102 -245 0
-214 576 0
-214 577 0
214 -576 -577 0
234 -245 0
234 -229 0
-234 245 229 0
-250 101 0
-250 126 0
250 -101 -126 0
256 -305 0
256 -310 0
-256 305 310 0
-268 126 0
-268 264 0
268 -126 -264 0
-272 269 0
-272 138 0
272 -269 -138 0
-283 578 0
-283 579 0
283 -578 -579 0
-288 130 0
-288 588 0
288 -130 -588 0
-294 190 0
-294 293 0
294 -190 -293 0
304 -62 0
304 -253 0
-304 62 253 0
-306 131 0
-306 302 0
306 -131 -302 0
-308 169 0
-308 622 0
308 -169 -622 0
-314 97 0
-314 636 0
314 -97 -636 0
-316 586 0
-316 617 0
316 -586 -617 0
-319 62 0
-319 315 0
319 -62 -315 0
-324 116 0
-324 217 0
324 -116 -217 0
-336 173 0
-336 158 0
336 -173 -158 0
-344 126 0
-344 118 0
344 -126 -118 0
-348 345 0
-348 347 0
348 -345 -347 0
-355 101 0
-355 125 0
355 -101 -125 0
-637 248 0
-637 358 0
637 -248 -358 0
-360 637 0
-360 145 0
360 -637 -145 0
-638 106 0
-638 138 0
638 -106 -138 0
-362 638 0
-362 639 0
362 -638 -639 0
-365 116 0
-365 363 0
365 -116 -363 0
-382 188 0
-382 380 0
382 -188 -380 0
-388 141 0
-388 144 0
388 -141 -144 0
-391 389 0
-391 167 0
391 -389 -167 0
402 -393 0
402 -397 0
-402 393 397 0
-407 94 0
-407 404 0
407 -94 -404 0
-410 157 0
-410 184 0
410 -157 -184 0
-415 98 0
-415 183 0
415 -98 -183 0
-422 420 0
-422 182 0
422 -420 -182 0
-425 423 0
-425 127 0
425 -423 -127 0
-427 572 0
-427 50 0
427 -572 -50 0
-430 426 0
-430 244 0
430 -426 -244 0
-434 247 0
-434 101 0
434 -247 -101 0
-436 597 0
-436 598 0
436 -597 -598 0
-439 126 0
-439 438 0
439 -126 -438 0
-447 102 0
-447 445 0
447 -102 -445 0
-451 599 0
-451 600 0
451 -599 -600 0
-455 106 0
-455 341 0
455 -106 -341 0
-640 126 0
-640 457 0
640 -126 -457 0
-461 640 0
-461 458 0
461 -640 -458 0
-464 462 0
-464 146 0
464 -462 -146 0
-466 254 0
-466 188 0
466 -254 -188 0
-469 248 0
-469 467 0
469 -248 -467 0
-471 603 0
-471 591 0
471 -603 -591 0
-473 190 0
-473 470 0
473 -190 -470 0
641 -460 0
641 -463 0
-641 460 463 0
475 -641 0
475 -465 0
-475 641 465 0
-478 119 0
-478 445 0
478 -119 -445 0
481 -173 0
481 -624 0
-481 173 624 0
-483 639 0
-483 480 0
483 -639 -480 0
-487 200 0
-487 485 0
487 -200 -485 0
-500 459 0
-500 498 0
500 -459 -498 0
502 -178 0
502 -183 0
-502 178 183 0
-507 106 0
-507 457 0
507 -106 -457 0
-517 107 0
-517 119 0
517 -107 -119 0
-527 200 0
-527 258 0
527 -200 -258 0
529 -200 0
529 -254 0
-529 200 254 0
-535 97 0
-535 532 0
535 -97 -532 0
540 -534 0
540 -536 0
-540 534 536 0
-542 126 0
-542 261 0
542 -126 -261 0
-546 606 0
-546 608 0
546 -606 -608 0
-556 157 0
-556 184 0
556 -157 -184 0
-559 554 0
-559 555 0
559 -554 -555 0
-562 560 0
-562 94 0
562 -560 -94 0
-564 620 0
-564 152 0
564 -620 -152 0
570 -286 0
570 -289 0
-570 286 289 0
573 -118 0
573 -182 0
-573 118 182 0
575 -101 0
575 -269 0
-575 101 269 0
585 -98 0
585 -106 0
-585 98 106 0
587 -184 0
587 -178 0
-587 184 178 0
604 -160 0
604 -126 0
-604 160 126 0
607 -204 0
607 -130 0
-607 204 130 0
-611 118 0
-611 157 0
611 -118 -157 0
-612 113 0
-612 105 0
612 -113 -105 0
-614 601 0
-614 602 0
614 -601 -602 0
-621 609 0
-621 555 0
621 -609 -555 0
-642 102 0
-642 116 0
642 -102 -116 0
-623 642 0
-623 643 0
623 -642 -643 0
-626 592 0
-626 167 0
626 -592 -167 0
-627 628 0
-627 629 0
627 -628 -629 0
-630 582 0
-630 126 0
630 -582 -126 0
-631 589 0
-631 590 0
631 -589 -590 0
644 -558 0
644 -561 0
-644 558 561 0
632 -644 0
632 -566 0
-632 644 566 0
